NAME : in_house_9_19
TYPE : TSP
DIMENSION : 9
EDGE_WEIGHT_TYPE : EXPLICIT
EDGE_WEIGHT_FORMAT : UPPER_ROW
COMMENT : INVERSION_SHIFT=2
EDGE_WEIGHT_SECTION
8
21
13
28
74
8
64
65
33
43
7
28
13
19
80
81
77
47
3
30
60
37
68
27
29
57
72
80
48
28
73
65
34
22
42
71
